
100
24770

429 329
1083 984
1060 960
1017 919
889 790
974 876
102 1
727 627
348 248
833 731
531 433
661 561
644 543
678 577
929 828
1081 982
448 346
908 807
988 890
494 393
224 124
600 498
866 765
626 525
286 185
807 706
425 325
987 887
269 169
692 594
486 386
1085 985
239 139
981 881
519 418
471 372
309 209
594 495
1032 930
1101 1000
1041 940
713 612
335 237
606 508
749 650
396 296
1086 987
185 85
336 235
305 204
269 168
164 64
342 240
476 374
1042 940
643 545
725 625
447 349
273 171
666 564
830 729
185 86
752 650
310 210
791 690
454 356
246 148
243 141
895 793
640 541
184 86
1005 906
379 277
379 280
104 3
400 301
662 560
997 898
401 299
598 498
178 80
786 687
401 301
474 376
369 271
919 819
1082 981
239 138
551 452
205 107
851 751
1009 908
226 127
785 683
406 304
550 451
671 573
485 385
750 652
429 327
